25 50
1 2 3
1 6 3
2 3 2
2 7 5
3 4 3
3 8 3
4 5 4
4 9 4
5 10 5
6 7 3
6 11 2
7 8 4
7 12 5
8 9 2
8 13 3
9 10 4
9 14 4
10 15 5
11 12 1
11 16 5
12 13 3
12 17 2
13 14 1
13 18 3
14 15 4
14 19 3
15 20 1
16 17 3
16 21 4
17 18 5
17 22 2
18 19 1
18 23 2
19 20 2
19 24 5
20 25 1
21 22 3
22 23 2
23 24 2
24 25 4
1 21 1
2 22 1
3 23 3
4 24 3
5 25 3
1 5 5
6 10 4
11 15 1
16 20 1
21 25 3
